letting np_cars_plus be 108
letting np_classes be 115
letting np_options be 124
letting quantity_range_min be 1
letting quantity_range_delta be 24
letting maxcars_range_min be 4
letting maxcars_range_delta be 9
letting blksize_delta_range_min be 6
letting blksize_delta_range_delta be 1
letting usage_card_min be 870
letting usage_card_delta be 20